103 6
10 10 10 10 10 10
1 0 0 0 0 0 0 3 2 3 4
5 4 0 9 10 0 10 2 7 8
2 10 0 0 3 10 7 3 5 6 8
1 10 6 10 0 0 10 2 5 8
2 10 8 5 6 0 0 1 10
6 3 0 0 9 0 10 1 12
7 6 0 0 2 0 0 2 9 11
1 0 0 0 0 5 10 2 10 12
10 7 10 8 4 0 0 3 13 15 16
1 4 5 0 0 0 0 2 13 15
1 10 0 7 4 4 0 3 13 15 16
1 0 0 0 3 0 0 2 13 14
8 0 10 10 0 0 4 2 17 18
2 0 0 7 10 8 10 3 18 19 20
1 0 0 3 8 0 7 1 20
3 10 6 0 5 0 0 1 18
8 9 0 3 5 0 8 2 21 23
1 0 0 6 0 0 0 2 21 23
1 10 5 0 10 0 7 4 21 22 23 24
1 0 0 3 10 6 0 2 21 23
5 10 0 5 0 0 7 2 26 28
1 10 0 10 5 0 0 2 26 27
10 9 0 10 8 10 6 3 25 26 27
4 0 8 10 0 8 0 1 25
9 7 0 4 0 0 0 1 29
1 0 9 0 0 0 0 2 29 30
1 0 0 6 7 5 0 2 29 32
1 10 4 0 0 0 0 1 31
10 0 10 0 0 5 3 1 33
1 5 7 0 10 0 3 1 35
6 10 5 0 5 8 0 3 34 35 36
1 0 0 0 5 0 6 1 35
9 3 0 0 7 6 3 3 37 38 39
1 0 8 4 0 10 3 2 37 38
2 0 0 0 0 0 10 4 37 38 39 40
1 10 0 0 0 5 0 3 37 39 40
4 10 0 3 0 4 5 4 41 42 43 44
1 0 0 0 9 10 7 3 41 42 44
1 8 10 0 10 0 9 1 42
1 0 0 8 0 4 10 3 41 42 43
1 10 6 0 6 0 6 1 48
1 10 8 7 0 0 0 2 45 46
6 0 5 0 0 10 10 4 45 46 47 48
1 0 4 9 5 0 0 2 45 47
1 0 0 0 0 10 8 3 49 51 52
6 7 10 0 4 8 5 2 50 51
1 10 0 0 9 0 10 2 50 51
2 0 0 0 10 0 0 3 50 51 52
2 0 9 3 0 7 8 1 53
7 10 7 0 10 10 0 1 54
1 0 9 4 0 0 9 2 55 56
3 0 0 7 6 4 9 1 56
5 0 0 0 0 0 10 2 57 59
9 0 0 10 6 0 8 3 58 59 60
2 0 5 9 3 0 0 2 57 60
1 0 0 6 0 5 6 2 59 60
1 0 0 0 6 0 0 3 61 62 63
9 5 0 8 0 4 10 1 61
1 10 10 0 0 0 0 2 63 64
5 7 5 0 0 7 0 2 62 64
6 0 0 0 0 4 0 2 66 68
1 0 6 0 4 0 8 2 66 68
5 0 0 10 3 0 0 4 65 66 67 68
4 5 0 0 10 0 10 2 65 67
1 0 10 3 3 7 0 2 69 72
8 0 5 0 0 9 0 2 70 71
1 10 10 0 2 10 0 1 69
4 0 0 6 0 0 3 2 70 71
4 6 3 6 7 9 0 2 73 75
1 10 10 9 0 3 6 2 74 75
4 0 0 0 0 0 0 3 73 74 75
1 0 10 0 0 0 0 3 73 75 76
7 0 0 0 10 0 0 2 78 80
1 0 0 10 9 4 3 2 77 78
1 0 7 0 0 0 0 1 78
7 0 7 0 0 10 6 2 78 79
1 10 3 0 7 10 0 2 82 84
4 3 4 0 10 0 0 1 83
4 0 3 0 0 0 10 4 81 82 83 84
7 5 0 6 10 0 0 3 81 82 84
7 9 0 8 0 10 6 4 85 86 87 88
1 0 10 0 0 0 3 3 86 87 88
2 0 10 0 4 10 0 2 86 88
3 0 0 7 10 7 0 3 85 86 88
3 10 6 4 9 7 8 1 91
2 0 0 0 0 8 0 3 89 91 92
10 0 0 0 0 4 0 2 90 92
2 8 0 0 0 5 0 3 89 90 92
2 0 0 0 0 5 6 2 93 96
10 4 9 10 0 0 0 3 93 94 95
2 0 0 0 0 3 10 1 95
6 0 0 0 4 10 0 2 93 96
1 5 6 8 10 10 0 1 98
9 0 8 10 4 0 0 2 97 98
1 0 5 7 10 6 0 1 99
4 10 10 10 2 0 0 3 97 99 100
7 10 4 10 0 0 10 1 102
7 0 0 0 0 8 0 1 101
3 0 9 9 2 0 0 1 102
1 0 0 3 2 0 0 2 101 102
3 0 0 0 2 8 0 1 103
10 0 8 9 10 0 0 1 103
0 0 0 0 0 0 0 0
